(set-info :source |printed by MathSAT|)
(declare-fun .PC.0 () Bool)
(declare-fun .PC.1 () Bool)
(declare-fun .PC.2 () Bool)
(declare-fun l__4$main.next () (_ BitVec 32))
(declare-fun .PC.0.next () Bool)
(declare-fun n__2$main () (_ BitVec 32))
(declare-fun .PC.1.next () Bool)
(declare-fun r__6$main.next () (_ BitVec 32))
(declare-fun r__6$main.SSA.1.ssa () (_ BitVec 32))
(declare-fun l__4$main.SSA.1.ssa () (_ BitVec 32))
(declare-fun __RET__$main.next () (_ BitVec 32))
(declare-fun __RET__$main () (_ BitVec 32))
(declare-fun l__4$main () (_ BitVec 32))
(declare-fun |__NONDET_INLINE_INIT__3__7$main#0| () (_ BitVec 32))
(declare-fun j__10$main () (_ BitVec 32))
(declare-fun i__8$main.next () (_ BitVec 32))
(declare-fun n__2$main.next () (_ BitVec 32))
(declare-fun r__6$main () (_ BitVec 32))
(declare-fun i__8$main () (_ BitVec 32))
(declare-fun j__10$main.next () (_ BitVec 32))
(declare-fun .PC.2.next () Bool)
(define-fun .def_13 () Bool (! .PC.0 :next |.PC.0.next|))
(define-fun .def_14 () Bool (not .def_13))
(define-fun .def_11 () Bool (! .PC.1 :next |.PC.1.next|))
(define-fun .def_12 () Bool (not .def_11))
(define-fun .def_15 () Bool (and .def_12 .def_14))
(define-fun .def_9 () Bool (! .PC.2 :next |.PC.2.next|))
(define-fun .def_10 () Bool (not .def_9))
(define-fun .def_16 () Bool (! (and .def_10 .def_15) :init true))
(define-fun .def_183 () Bool (= r__6$main.next r__6$main.SSA.1.ssa))
(define-fun .def_173 () Bool (= n__2$main.next r__6$main.SSA.1.ssa))
(define-fun .def_170 () Bool (= n__2$main.next |__NONDET_INLINE_INIT__3__7$main#0|))
(define-fun .def_167 () Bool (bvslt n__2$main.next (_ bv1 32)))
(define-fun .def_168 () Bool (not .def_167))
(define-fun .def_171 () Bool (and .def_168 .def_170))
(define-fun .def_164 () (_ BitVec 32) (bvsdiv n__2$main.next (_ bv2 32)))
(define-fun .def_165 () (_ BitVec 32) (bvadd (_ bv1 32) .def_164))
(define-fun .def_166 () Bool (= l__4$main.SSA.1.ssa .def_165))
(define-fun .def_172 () Bool (and .def_166 .def_171))
(define-fun .def_174 () Bool (and .def_172 .def_173))
(define-fun .def_161 () Bool (bvslt (_ bv1 32) l__4$main.SSA.1.ssa))
(define-fun .def_181 () Bool (and .def_161 .def_174))
(define-fun .def_179 () (_ BitVec 32) (bvadd (_ bv4294967295 32) l__4$main.SSA.1.ssa))
(define-fun .def_180 () Bool (= l__4$main.next .def_179))
(define-fun .def_182 () Bool (and .def_180 .def_181))
(define-fun .def_184 () Bool (and .def_182 .def_183))
(define-fun .def_177 () Bool (= l__4$main.next l__4$main.SSA.1.ssa))
(define-fun .def_162 () Bool (not .def_161))
(define-fun .def_175 () Bool (and .def_162 .def_174))
(define-fun .def_158 () (_ BitVec 32) (bvadd (_ bv4294967295 32) r__6$main.SSA.1.ssa))
(define-fun .def_159 () Bool (= r__6$main.next .def_158))
(define-fun .def_176 () Bool (and .def_159 .def_175))
(define-fun .def_178 () Bool (and .def_176 .def_177))
(define-fun .def_185 () Bool (or .def_178 .def_184))
(define-fun .def_30 () (_ BitVec 32) (! i__8$main :next |i__8$main.next|))
(define-fun .def_31 () Bool (= i__8$main.next .def_30))
(define-fun .def_186 () Bool (and .def_31 .def_185))
(define-fun .def_27 () (_ BitVec 32) (! __RET__$main :next |__RET__$main.next|))
(define-fun .def_28 () Bool (= __RET__$main.next .def_27))
(define-fun .def_187 () Bool (and .def_28 .def_186))
(define-fun .def_42 () (_ BitVec 32) (! j__10$main :next |j__10$main.next|))
(define-fun .def_43 () Bool (= j__10$main.next .def_42))
(define-fun .def_188 () Bool (and .def_43 .def_187))
(define-fun .def_53 () Bool (not .PC.2.next))
(define-fun .def_18 () Bool (not .PC.1.next))
(define-fun .def_20 () Bool (and .def_18 .PC.0.next))
(define-fun .def_111 () Bool (and .def_20 .def_53))
(define-fun .def_189 () Bool (and .def_111 .def_188))
(define-fun .def_190 () Bool (and .def_16 .def_189))
(define-fun .def_23 () Bool (and .def_12 .def_13))
(define-fun .def_155 () Bool (and .def_10 .def_23))
(define-fun .def_46 () (_ BitVec 32) (! r__6$main :next |r__6$main.next|))
(define-fun .def_147 () Bool (bvslt (_ bv1 32) .def_46))
(define-fun .def_38 () (_ BitVec 32) (! l__4$main :next |l__4$main.next|))
(define-fun .def_146 () Bool (= i__8$main.next .def_38))
(define-fun .def_148 () Bool (and .def_146 .def_147))
(define-fun .def_144 () (_ BitVec 32) (bvshl .def_38 (_ bv1 32)))
(define-fun .def_145 () Bool (= j__10$main.next .def_144))
(define-fun .def_149 () Bool (and .def_145 .def_148))
(define-fun .def_150 () Bool (and .def_28 .def_149))
(define-fun .def_34 () (_ BitVec 32) (! n__2$main :next |n__2$main.next|))
(define-fun .def_35 () Bool (= n__2$main.next .def_34))
(define-fun .def_151 () Bool (and .def_35 .def_150))
(define-fun .def_39 () Bool (= l__4$main.next .def_38))
(define-fun .def_152 () Bool (and .def_39 .def_151))
(define-fun .def_47 () Bool (= r__6$main.next .def_46))
(define-fun .def_153 () Bool (and .def_47 .def_152))
(define-fun .def_52 () Bool (and .PC.1.next .PC.0.next))
(define-fun .def_54 () Bool (and .def_52 .def_53))
(define-fun .def_154 () Bool (and .def_54 .def_153))
(define-fun .def_156 () Bool (and .def_154 .def_155))
(define-fun .def_191 () Bool (or .def_156 .def_190))
(define-fun .def_132 () Bool (bvslt .def_34 .def_38))
(define-fun .def_133 () Bool (not .def_132))
(define-fun .def_117 () Bool (bvslt (_ bv1 32) .def_38))
(define-fun .def_67 () Bool (bvslt .def_46 .def_42))
(define-fun .def_130 () Bool (and .def_67 .def_117))
(define-fun .def_128 () Bool (bvslt .def_38 (_ bv1 32)))
(define-fun .def_129 () Bool (not .def_128))
(define-fun .def_131 () Bool (and .def_129 .def_130))
(define-fun .def_134 () Bool (and .def_131 .def_133))
(define-fun .def_126 () (_ BitVec 32) (bvadd (_ bv4294967295 32) .def_38))
(define-fun .def_127 () Bool (= l__4$main.next .def_126))
(define-fun .def_135 () Bool (and .def_127 .def_134))
(define-fun .def_136 () Bool (and .def_47 .def_135))
(define-fun .def_121 () Bool (bvslt .def_34 .def_46))
(define-fun .def_122 () Bool (not .def_121))
(define-fun .def_118 () Bool (not .def_117))
(define-fun .def_119 () Bool (and .def_67 .def_118))
(define-fun .def_115 () Bool (bvslt .def_46 (_ bv1 32)))
(define-fun .def_116 () Bool (not .def_115))
(define-fun .def_120 () Bool (and .def_116 .def_119))
(define-fun .def_123 () Bool (and .def_120 .def_122))
(define-fun .def_113 () (_ BitVec 32) (bvadd (_ bv4294967295 32) .def_46))
(define-fun .def_114 () Bool (= r__6$main.next .def_113))
(define-fun .def_124 () Bool (and .def_114 .def_123))
(define-fun .def_125 () Bool (and .def_39 .def_124))
(define-fun .def_137 () Bool (or .def_125 .def_136))
(define-fun .def_138 () Bool (and .def_31 .def_137))
(define-fun .def_139 () Bool (and .def_28 .def_138))
(define-fun .def_140 () Bool (and .def_35 .def_139))
(define-fun .def_141 () Bool (and .def_43 .def_140))
(define-fun .def_142 () Bool (and .def_111 .def_141))
(define-fun .def_96 () Bool (and .def_11 .def_13))
(define-fun .def_97 () Bool (and .def_10 .def_96))
(define-fun .def_143 () Bool (and .def_97 .def_142))
(define-fun .def_192 () Bool (or .def_143 .def_191))
(define-fun .def_69 () Bool (bvslt .def_42 .def_46))
(define-fun .def_68 () Bool (not .def_67))
(define-fun .def_70 () Bool (and .def_68 .def_69))
(define-fun .def_65 () Bool (bvslt .def_42 (_ bv1 32)))
(define-fun .def_102 () Bool (and .def_65 .def_70))
(define-fun .def_103 () Bool (and .def_31 .def_102))
(define-fun .def_104 () Bool (and .def_28 .def_103))
(define-fun .def_105 () Bool (and .def_35 .def_104))
(define-fun .def_106 () Bool (and .def_39 .def_105))
(define-fun .def_107 () Bool (and .def_43 .def_106))
(define-fun .def_108 () Bool (and .def_47 .def_107))
(define-fun .def_99 () Bool (not .PC.0.next))
(define-fun .def_100 () Bool (and .def_18 .def_99))
(define-fun .def_101 () Bool (and .PC.2.next .def_100))
(define-fun .def_109 () Bool (and .def_101 .def_108))
(define-fun .def_110 () Bool (and .def_97 .def_109))
(define-fun .def_193 () Bool (or .def_110 .def_192))
(define-fun .def_88 () Bool (= i__8$main.next .def_42))
(define-fun .def_83 () Bool (bvslt .def_34 .def_30))
(define-fun .def_84 () Bool (not .def_83))
(define-fun .def_77 () Bool (not .def_69))
(define-fun .def_78 () Bool (and .def_68 .def_77))
(define-fun .def_72 () Bool (bvslt .def_34 .def_42))
(define-fun .def_73 () Bool (not .def_72))
(define-fun .def_66 () Bool (not .def_65))
(define-fun .def_71 () Bool (and .def_66 .def_70))
(define-fun .def_74 () Bool (and .def_71 .def_73))
(define-fun .def_60 () (_ BitVec 32) (bvadd (_ bv1 32) .def_42))
(define-fun .def_63 () Bool (bvslt .def_60 (_ bv1 32)))
(define-fun .def_64 () Bool (not .def_63))
(define-fun .def_75 () Bool (and .def_64 .def_74))
(define-fun .def_61 () Bool (bvslt .def_34 .def_60))
(define-fun .def_62 () Bool (not .def_61))
(define-fun .def_76 () Bool (and .def_62 .def_75))
(define-fun .def_79 () Bool (or .def_76 .def_78))
(define-fun .def_80 () Bool (and .def_66 .def_79))
(define-fun .def_81 () Bool (and .def_73 .def_80))
(define-fun .def_58 () Bool (bvslt .def_30 (_ bv1 32)))
(define-fun .def_59 () Bool (not .def_58))
(define-fun .def_82 () Bool (and .def_59 .def_81))
(define-fun .def_85 () Bool (and .def_82 .def_84))
(define-fun .def_86 () Bool (and .def_66 .def_85))
(define-fun .def_87 () Bool (and .def_73 .def_86))
(define-fun .def_89 () Bool (and .def_87 .def_88))
(define-fun .def_56 () (_ BitVec 32) (bvshl .def_42 (_ bv1 32)))
(define-fun .def_57 () Bool (= j__10$main.next .def_56))
(define-fun .def_90 () Bool (and .def_57 .def_89))
(define-fun .def_91 () Bool (and .def_28 .def_90))
(define-fun .def_92 () Bool (and .def_35 .def_91))
(define-fun .def_93 () Bool (and .def_39 .def_92))
(define-fun .def_94 () Bool (and .def_47 .def_93))
(define-fun .def_95 () Bool (and .def_54 .def_94))
(define-fun .def_98 () Bool (and .def_95 .def_97))
(define-fun .def_194 () Bool (or .def_98 .def_193))
(define-fun .def_50 () Bool (and .def_9 .def_15))
(define-fun .def_32 () Bool (and .def_28 .def_31))
(define-fun .def_36 () Bool (and .def_32 .def_35))
(define-fun .def_40 () Bool (and .def_36 .def_39))
(define-fun .def_44 () Bool (and .def_40 .def_43))
(define-fun .def_48 () Bool (and .def_44 .def_47))
(define-fun .def_22 () Bool (and .def_20 .PC.2.next))
(define-fun .def_49 () Bool (and .def_22 .def_48))
(define-fun .def_51 () Bool (and .def_49 .def_50))
(define-fun .def_195 () Bool (or .def_51 .def_194))
(define-fun .def_24 () Bool (and .def_9 .def_23))
(define-fun .def_25 () Bool (and .def_22 .def_24))
(define-fun .def_196 () Bool (! (or .def_25 .def_195) :trans true))
(define-fun .def_197 () Bool (! (not .def_24) :invar-property 0))
(assert true)
